(set-info :smt-lib-version 2.6)
(set-logic QF_NIA)
(set-info :source |
Generated by: Cristina Borralleras, Daniel Larraz, Albert Oliveras, Enric Rodriguez-Carbonell, Albert Rubio
Generated on: 2017-04-27
Generator: VeryMax
Application: Termination proving
Target solver: barcelogic
|)
(set-info :license "https://creativecommons.org/licenses/by/4.0/")
(set-info :category "industrial")
(set-info :status sat)
(declare-fun Nl2a_176^01 () Int)
(declare-fun Nl2i_214^01 () Int)
(declare-fun Nl2i_28^01 () Int)
(declare-fun Nl2i_347^01 () Int)
(declare-fun Nl2l_160^01 () Int)
(declare-fun Nl2rv_13^01 () Int)
(declare-fun Nl2st_27^01 () Int)
(declare-fun Nl2a_176^02 () Int)
(declare-fun Nl2i_214^02 () Int)
(declare-fun Nl2i_28^02 () Int)
(declare-fun Nl2i_347^02 () Int)
(declare-fun Nl2l_160^02 () Int)
(declare-fun Nl2rv_13^02 () Int)
(declare-fun Nl2st_27^02 () Int)
(declare-fun Nl2a_176^03 () Int)
(declare-fun Nl2i_214^03 () Int)
(declare-fun Nl2i_28^03 () Int)
(declare-fun Nl2i_347^03 () Int)
(declare-fun Nl2l_160^03 () Int)
(declare-fun Nl2rv_13^03 () Int)
(declare-fun Nl2st_27^03 () Int)
(declare-fun lam0n0 () Int)
(declare-fun lam0n1 () Int)
(declare-fun lam0n2 () Int)
(declare-fun lam0n3 () Int)
(declare-fun lam0n4 () Int)
(declare-fun lam0n5 () Int)
(declare-fun lam0n6 () Int)
(declare-fun lam0n7 () Int)
(declare-fun lam0n8 () Int)
(declare-fun lam0n9 () Int)
(declare-fun lam0n10 () Int)
(declare-fun lam0n18 () Int)
(declare-fun lam0n19 () Int)
(declare-fun lam0n20 () Int)
(declare-fun lam0n17 () Int)
(declare-fun Nl2CT1 () Int)
(declare-fun Nl2CT2 () Int)
(declare-fun Nl2CT3 () Int)
(declare-fun lam0n11 () Int)
(declare-fun lam0n12 () Int)
(declare-fun lam0n13 () Int)
(declare-fun lam0n14 () Int)
(declare-fun lam0n15 () Int)
(declare-fun lam0n16 () Int)
(declare-fun lam1n0 () Int)
(declare-fun lam1n1 () Int)
(declare-fun lam1n2 () Int)
(declare-fun lam1n3 () Int)
(declare-fun lam1n4 () Int)
(declare-fun lam1n5 () Int)
(declare-fun lam1n6 () Int)
(declare-fun lam1n7 () Int)
(declare-fun lam1n8 () Int)
(declare-fun lam1n9 () Int)
(declare-fun lam1n10 () Int)
(declare-fun lam1n18 () Int)
(declare-fun lam1n19 () Int)
(declare-fun lam1n20 () Int)
(declare-fun lam1n17 () Int)
(declare-fun lam1n11 () Int)
(declare-fun lam1n12 () Int)
(declare-fun lam1n13 () Int)
(declare-fun lam1n14 () Int)
(declare-fun lam1n15 () Int)
(declare-fun lam1n16 () Int)
(declare-fun lam2n0 () Int)
(declare-fun lam2n1 () Int)
(declare-fun lam2n2 () Int)
(declare-fun lam2n3 () Int)
(declare-fun lam2n4 () Int)
(declare-fun lam2n5 () Int)
(declare-fun lam2n6 () Int)
(declare-fun lam2n7 () Int)
(declare-fun lam2n8 () Int)
(declare-fun lam2n9 () Int)
(declare-fun lam2n10 () Int)
(declare-fun lam2n18 () Int)
(declare-fun lam2n19 () Int)
(declare-fun lam2n20 () Int)
(declare-fun lam2n17 () Int)
(declare-fun lam2n11 () Int)
(declare-fun lam2n12 () Int)
(declare-fun lam2n13 () Int)
(declare-fun lam2n14 () Int)
(declare-fun lam2n15 () Int)
(declare-fun lam2n16 () Int)
(declare-fun lam3n0 () Int)
(declare-fun lam3n1 () Int)
(declare-fun lam3n2 () Int)
(declare-fun lam3n3 () Int)
(declare-fun lam3n4 () Int)
(declare-fun lam3n5 () Int)
(declare-fun lam3n6 () Int)
(declare-fun lam3n7 () Int)
(declare-fun lam3n8 () Int)
(declare-fun lam3n9 () Int)
(declare-fun lam3n10 () Int)
(declare-fun lam3n18 () Int)
(declare-fun lam3n19 () Int)
(declare-fun lam3n20 () Int)
(declare-fun lam3n17 () Int)
(declare-fun lam3n11 () Int)
(declare-fun lam3n12 () Int)
(declare-fun lam3n13 () Int)
(declare-fun lam3n14 () Int)
(declare-fun lam3n15 () Int)
(declare-fun lam3n16 () Int)
(declare-fun lam4n0 () Int)
(declare-fun lam4n1 () Int)
(declare-fun lam4n2 () Int)
(declare-fun lam4n3 () Int)
(declare-fun lam4n4 () Int)
(declare-fun lam4n5 () Int)
(declare-fun lam4n6 () Int)
(declare-fun lam4n7 () Int)
(declare-fun lam4n8 () Int)
(declare-fun lam4n9 () Int)
(declare-fun lam4n18 () Int)
(declare-fun lam4n10 () Int)
(declare-fun lam4n11 () Int)
(declare-fun lam4n12 () Int)
(declare-fun lam4n13 () Int)
(declare-fun lam4n14 () Int)
(declare-fun lam4n15 () Int)
(declare-fun lam4n16 () Int)
(declare-fun lam4n17 () Int)
(declare-fun lam5n0 () Int)
(declare-fun lam5n1 () Int)
(declare-fun lam5n2 () Int)
(declare-fun lam5n3 () Int)
(declare-fun lam5n4 () Int)
(declare-fun lam5n5 () Int)
(declare-fun lam5n6 () Int)
(declare-fun lam5n7 () Int)
(declare-fun lam5n8 () Int)
(declare-fun lam5n9 () Int)
(declare-fun lam5n18 () Int)
(declare-fun lam5n10 () Int)
(declare-fun lam5n11 () Int)
(declare-fun lam5n12 () Int)
(declare-fun lam5n13 () Int)
(declare-fun lam5n14 () Int)
(declare-fun lam5n15 () Int)
(declare-fun lam5n16 () Int)
(declare-fun lam5n17 () Int)
(declare-fun lam6n0 () Int)
(declare-fun lam6n1 () Int)
(declare-fun lam6n2 () Int)
(declare-fun lam6n3 () Int)
(declare-fun lam6n4 () Int)
(declare-fun lam6n5 () Int)
(declare-fun lam6n6 () Int)
(declare-fun lam6n7 () Int)
(declare-fun lam6n8 () Int)
(declare-fun lam6n9 () Int)
(declare-fun lam6n18 () Int)
(declare-fun lam6n10 () Int)
(declare-fun lam6n11 () Int)
(declare-fun lam6n12 () Int)
(declare-fun lam6n13 () Int)
(declare-fun lam6n14 () Int)
(declare-fun lam6n15 () Int)
(declare-fun lam6n16 () Int)
(declare-fun lam6n17 () Int)
(declare-fun lam7n0 () Int)
(declare-fun lam7n1 () Int)
(declare-fun lam7n2 () Int)
(declare-fun lam7n3 () Int)
(declare-fun lam7n4 () Int)
(declare-fun lam7n5 () Int)
(declare-fun lam7n6 () Int)
(declare-fun lam7n7 () Int)
(declare-fun lam7n8 () Int)
(declare-fun lam7n9 () Int)
(declare-fun lam7n10 () Int)
(declare-fun lam7n19 () Int)
(declare-fun lam7n11 () Int)
(declare-fun lam7n12 () Int)
(declare-fun lam7n13 () Int)
(declare-fun lam7n14 () Int)
(declare-fun lam7n15 () Int)
(declare-fun lam7n16 () Int)
(declare-fun lam7n17 () Int)
(declare-fun lam7n18 () Int)
(declare-fun lam8n0 () Int)
(declare-fun lam8n1 () Int)
(declare-fun lam8n2 () Int)
(declare-fun lam8n3 () Int)
(declare-fun lam8n4 () Int)
(declare-fun lam8n5 () Int)
(declare-fun lam8n6 () Int)
(declare-fun lam8n7 () Int)
(declare-fun lam8n8 () Int)
(declare-fun lam8n9 () Int)
(declare-fun lam8n10 () Int)
(declare-fun lam8n19 () Int)
(declare-fun lam8n11 () Int)
(declare-fun lam8n12 () Int)
(declare-fun lam8n13 () Int)
(declare-fun lam8n14 () Int)
(declare-fun lam8n15 () Int)
(declare-fun lam8n16 () Int)
(declare-fun lam8n17 () Int)
(declare-fun lam8n18 () Int)
(declare-fun lam9n0 () Int)
(declare-fun lam9n1 () Int)
(declare-fun lam9n2 () Int)
(declare-fun lam9n3 () Int)
(declare-fun lam9n4 () Int)
(declare-fun lam9n5 () Int)
(declare-fun lam9n6 () Int)
(declare-fun lam9n7 () Int)
(declare-fun lam9n8 () Int)
(declare-fun lam9n9 () Int)
(declare-fun lam9n10 () Int)
(declare-fun lam9n19 () Int)
(declare-fun lam9n11 () Int)
(declare-fun lam9n12 () Int)
(declare-fun lam9n13 () Int)
(declare-fun lam9n14 () Int)
(declare-fun lam9n15 () Int)
(declare-fun lam9n16 () Int)
(declare-fun lam9n17 () Int)
(declare-fun lam9n18 () Int)
(declare-fun lam10n0 () Int)
(declare-fun lam10n1 () Int)
(declare-fun lam10n2 () Int)
(declare-fun lam10n3 () Int)
(declare-fun lam10n4 () Int)
(declare-fun lam10n5 () Int)
(declare-fun lam10n6 () Int)
(declare-fun lam10n7 () Int)
(declare-fun lam10n8 () Int)
(declare-fun lam10n17 () Int)
(declare-fun lam10n9 () Int)
(declare-fun lam10n10 () Int)
(declare-fun lam10n11 () Int)
(declare-fun lam10n12 () Int)
(declare-fun lam10n13 () Int)
(declare-fun lam10n14 () Int)
(declare-fun lam10n15 () Int)
(declare-fun lam10n16 () Int)
(declare-fun lam11n0 () Int)
(declare-fun lam11n1 () Int)
(declare-fun lam11n2 () Int)
(declare-fun lam11n3 () Int)
(declare-fun lam11n4 () Int)
(declare-fun lam11n5 () Int)
(declare-fun lam11n6 () Int)
(declare-fun lam11n7 () Int)
(declare-fun lam11n8 () Int)
(declare-fun lam11n17 () Int)
(declare-fun lam11n9 () Int)
(declare-fun lam11n10 () Int)
(declare-fun lam11n11 () Int)
(declare-fun lam11n12 () Int)
(declare-fun lam11n13 () Int)
(declare-fun lam11n14 () Int)
(declare-fun lam11n15 () Int)
(declare-fun lam11n16 () Int)
(declare-fun lam12n0 () Int)
(declare-fun lam12n1 () Int)
(declare-fun lam12n2 () Int)
(declare-fun lam12n3 () Int)
(declare-fun lam12n4 () Int)
(declare-fun lam12n5 () Int)
(declare-fun lam12n6 () Int)
(declare-fun lam12n7 () Int)
(declare-fun lam12n8 () Int)
(declare-fun lam12n17 () Int)
(declare-fun lam12n9 () Int)
(declare-fun lam12n10 () Int)
(declare-fun lam12n11 () Int)
(declare-fun lam12n12 () Int)
(declare-fun lam12n13 () Int)
(declare-fun lam12n14 () Int)
(declare-fun lam12n15 () Int)
(declare-fun lam12n16 () Int)
(declare-fun a_176^0 () Int)
(declare-fun l_160^0 () Int)
(declare-fun undef79 () Int)
(declare-fun i_214^0 () Int)
(declare-fun i_347^0 () Int)
(declare-fun i_30^0 () Int)
(declare-fun l_29^0 () Int)
(declare-fun rv_13^0 () Int)
(declare-fun undef32 () Int)
(declare-fun undef77 () Int)
(declare-fun undef78 () Int)
(declare-fun h_32^0 () Int)
(declare-fun undef81 () Int)
(declare-fun undef25 () Int)
(declare-fun undef70 () Int)
(declare-fun undef80 () Int)
(declare-fun undef27 () Int)
(declare-fun undef28 () Int)
(declare-fun undef35 () Int)
(declare-fun undef65 () Int)
(declare-fun lam16n0 () Int)
(declare-fun lam16n1 () Int)
(declare-fun lam16n2 () Int)
(declare-fun lam16n3 () Int)
(declare-fun lam16n4 () Int)
(declare-fun lam16n5 () Int)
(declare-fun lam16n6 () Int)
(declare-fun lam16n7 () Int)
(declare-fun lam16n8 () Int)
(declare-fun lam16n9 () Int)
(declare-fun lam16n10 () Int)
(declare-fun lam16n18 () Int)
(declare-fun lam16n19 () Int)
(declare-fun lam16n20 () Int)
(declare-fun lam16n17 () Int)
(declare-fun RFN1_CT () Int)
(declare-fun RFN1_a_176^0 () Int)
(declare-fun RFN1_i_28^0 () Int)
(declare-fun RFN1_l_160^0 () Int)
(declare-fun RFN1_st_27^0 () Int)
(declare-fun RFN1_i_214^0 () Int)
(declare-fun RFN1_i_347^0 () Int)
(declare-fun RFN1_rv_13^0 () Int)
(declare-fun lam16n11 () Int)
(declare-fun lam16n12 () Int)
(declare-fun lam16n13 () Int)
(declare-fun lam16n14 () Int)
(declare-fun lam16n15 () Int)
(declare-fun lam16n16 () Int)
(declare-fun lam14n0 () Int)
(declare-fun lam14n1 () Int)
(declare-fun lam14n2 () Int)
(declare-fun lam14n3 () Int)
(declare-fun lam14n4 () Int)
(declare-fun lam14n5 () Int)
(declare-fun lam14n6 () Int)
(declare-fun lam14n7 () Int)
(declare-fun lam14n8 () Int)
(declare-fun lam14n9 () Int)
(declare-fun lam14n10 () Int)
(declare-fun lam14n18 () Int)
(declare-fun lam14n19 () Int)
(declare-fun lam14n20 () Int)
(declare-fun lam14n17 () Int)
(declare-fun lam14n11 () Int)
(declare-fun lam14n12 () Int)
(declare-fun lam14n13 () Int)
(declare-fun lam14n14 () Int)
(declare-fun lam14n15 () Int)
(declare-fun lam14n16 () Int)
(declare-fun lam15n0 () Int)
(declare-fun lam15n1 () Int)
(declare-fun lam15n2 () Int)
(declare-fun lam15n3 () Int)
(declare-fun lam15n4 () Int)
(declare-fun lam15n5 () Int)
(declare-fun lam15n6 () Int)
(declare-fun lam15n7 () Int)
(declare-fun lam15n8 () Int)
(declare-fun lam15n9 () Int)
(declare-fun lam15n10 () Int)
(declare-fun lam15n18 () Int)
(declare-fun lam15n19 () Int)
(declare-fun lam15n20 () Int)
(declare-fun lam15n17 () Int)
(declare-fun lam15n11 () Int)
(declare-fun lam15n12 () Int)
(declare-fun lam15n13 () Int)
(declare-fun lam15n14 () Int)
(declare-fun lam15n15 () Int)
(declare-fun lam15n16 () Int)
(declare-fun lam13n0 () Int)
(declare-fun lam13n1 () Int)
(declare-fun lam13n2 () Int)
(declare-fun lam13n3 () Int)
(declare-fun lam13n4 () Int)
(declare-fun lam13n5 () Int)
(declare-fun lam13n6 () Int)
(declare-fun lam13n7 () Int)
(declare-fun lam13n8 () Int)
(declare-fun lam13n9 () Int)
(declare-fun lam13n10 () Int)
(declare-fun lam13n18 () Int)
(declare-fun lam13n19 () Int)
(declare-fun lam13n20 () Int)
(declare-fun lam13n17 () Int)
(declare-fun lam13n11 () Int)
(declare-fun lam13n12 () Int)
(declare-fun lam13n13 () Int)
(declare-fun lam13n14 () Int)
(declare-fun lam13n15 () Int)
(declare-fun lam13n16 () Int)
(assert ( and ( <= ( - 1 ) Nl2a_176^01 ) ( <= Nl2a_176^01 1 ) ( <= ( - 1 ) Nl2i_214^01 ) ( <= Nl2i_214^01 1 ) ( <= ( - 1 ) Nl2i_28^01 ) ( <= Nl2i_28^01 1 ) ( <= ( - 1 ) Nl2i_347^01 ) ( <= Nl2i_347^01 1 ) ( <= ( - 1 ) Nl2l_160^01 ) ( <= Nl2l_160^01 1 ) ( <= ( - 1 ) Nl2rv_13^01 ) ( <= Nl2rv_13^01 1 ) ( <= ( - 1 ) Nl2st_27^01 ) ( <= Nl2st_27^01 1 ) ( <= ( - 1 ) Nl2a_176^02 ) ( <= Nl2a_176^02 1 ) ( <= ( - 1 ) Nl2i_214^02 ) ( <= Nl2i_214^02 1 ) ( <= ( - 1 ) Nl2i_28^02 ) ( <= Nl2i_28^02 1 ) ( <= ( - 1 ) Nl2i_347^02 ) ( <= Nl2i_347^02 1 ) ( <= ( - 1 ) Nl2l_160^02 ) ( <= Nl2l_160^02 1 ) ( <= ( - 1 ) Nl2rv_13^02 ) ( <= Nl2rv_13^02 1 ) ( <= ( - 1 ) Nl2st_27^02 ) ( <= Nl2st_27^02 1 ) ( <= ( - 1 ) Nl2a_176^03 ) ( <= Nl2a_176^03 1 ) ( <= ( - 1 ) Nl2i_214^03 ) ( <= Nl2i_214^03 1 ) ( <= ( - 1 ) Nl2i_28^03 ) ( <= Nl2i_28^03 1 ) ( <= ( - 1 ) Nl2i_347^03 ) ( <= Nl2i_347^03 1 ) ( <= ( - 1 ) Nl2l_160^03 ) ( <= Nl2l_160^03 1 ) ( <= ( - 1 ) Nl2rv_13^03 ) ( <= Nl2rv_13^03 1 ) ( <= ( - 1 ) Nl2st_27^03 ) ( <= Nl2st_27^03 1 ) ))
(assert ( or ( and ( >= lam0n0 0 ) ( >= lam0n1 0 ) ( >= lam0n2 0 ) ( >= lam0n3 0 ) ( >= lam0n4 0 ) ( >= lam0n5 0 ) ( >= lam0n6 0 ) ( >= lam0n7 0 ) ( >= lam0n8 0 ) ( >= lam0n9 0 ) ( >= lam0n10 0 ) ( >= lam0n18 0 ) ( >= lam0n19 0 ) ( >= lam0n20 0 ) ( > ( + ( * 1 lam0n9 ) ( * 2 lam0n10 ) ( * ( - 1 ) lam0n17 ) ( * Nl2CT1 lam0n18 ) ( * Nl2CT2 lam0n19 ) ( * Nl2CT3 lam0n20 ) ( - 1 ) ) 0 ) ( = ( + ( * ( - 1 ) lam0n0 ) ( * ( - 1 ) lam0n1 ) ( * Nl2a_176^01 lam0n18 ) ( * Nl2a_176^02 lam0n19 ) ( * Nl2a_176^03 lam0n20 ) ) 0 ) ( = ( + ( * 1 lam0n2 ) ( * ( - 1 ) lam0n9 ) ( * Nl2i_214^01 lam0n18 ) ( * Nl2i_214^02 lam0n19 ) ( * Nl2i_214^03 lam0n20 ) ) 0 ) ( = ( + ( * 1 lam0n1 ) ( * 1 lam0n3 ) ( * 1 lam0n4 ) ( * Nl2i_28^01 lam0n18 ) ( * Nl2i_28^02 lam0n19 ) ( * Nl2i_28^03 lam0n20 ) ) 0 ) ( = ( + ( * 1 lam0n4 ) ( * 1 lam0n5 ) ( * 1 lam0n9 ) ( * Nl2i_347^01 lam0n18 ) ( * Nl2i_347^02 lam0n19 ) ( * Nl2i_347^03 lam0n20 ) ) 0 ) ( = ( + ( * ( - 1 ) lam0n1 ) ( * ( - 1 ) lam0n6 ) ( * Nl2l_160^01 lam0n18 ) ( * Nl2l_160^02 lam0n19 ) ( * Nl2l_160^03 lam0n20 ) ) 0 ) ( = ( + ( * ( - 1 ) lam0n10 ) ( * Nl2rv_13^01 lam0n18 ) ( * Nl2rv_13^02 lam0n19 ) ( * Nl2rv_13^03 lam0n20 ) ) 0 ) ( = ( + ( * Nl2st_27^01 lam0n18 ) ( * Nl2st_27^02 lam0n19 ) ( * Nl2st_27^03 lam0n20 ) ) 0 ) ( = ( * 1 lam0n11 ) 0 ) ( = ( + ( * ( - 1 ) lam0n11 ) ( * 1 lam0n12 ) ) 0 ) ( = ( * 1 lam0n13 ) 0 ) ( = ( + ( * ( - 1 ) lam0n13 ) ( * 1 lam0n14 ) ) 0 ) ( = ( * 1 lam0n17 ) 0 ) ( = ( + ( * ( - 1 ) lam0n7 ) ( * ( - 1 ) lam0n12 ) ( * 1 lam0n15 ) ) 0 ) ( = ( * ( - 1 ) lam0n15 ) 0 ) ( = ( + ( * ( - 1 ) lam0n8 ) ( * ( - 1 ) lam0n14 ) ( * 1 lam0n16 ) ) 0 ) ( = ( * ( - 1 ) lam0n16 ) 0 ) ) ( and ( >= lam1n0 0 ) ( >= lam1n1 0 ) ( >= lam1n2 0 ) ( >= lam1n3 0 ) ( >= lam1n4 0 ) ( >= lam1n5 0 ) ( >= lam1n6 0 ) ( >= lam1n7 0 ) ( >= lam1n8 0 ) ( >= lam1n9 0 ) ( >= lam1n10 0 ) ( >= lam1n18 0 ) ( >= lam1n19 0 ) ( >= lam1n20 0 ) ( > ( + ( * 1 lam1n9 ) ( * 2 lam1n10 ) ( * ( - 1 ) lam1n17 ) ( * Nl2CT1 lam1n18 ) ( * Nl2CT2 lam1n19 ) ( * Nl2CT3 lam1n20 ) ( - 1 ( + ( + ( + ( + Nl2CT1 ( * Nl2a_176^01 0 ) ) ( * Nl2i_28^01 0 ) ) ( * Nl2l_160^01 0 ) ) ( * Nl2st_27^01 0 ) ) ) ) 0 ) ( = ( + ( * ( - 1 ) lam1n0 ) ( * ( - 1 ) lam1n1 ) ( * Nl2a_176^01 lam1n18 ) ( * Nl2a_176^02 lam1n19 ) ( * Nl2a_176^03 lam1n20 ) ) 0 ) ( = ( + ( * 1 lam1n2 ) ( * ( - 1 ) lam1n9 ) ( * Nl2i_214^01 lam1n18 ) ( * Nl2i_214^02 lam1n19 ) ( * Nl2i_214^03 lam1n20 ) ( - ( + 0 Nl2i_214^01 ) ) ) 0 ) ( = ( + ( * 1 lam1n1 ) ( * 1 lam1n3 ) ( * 1 lam1n4 ) ( * Nl2i_28^01 lam1n18 ) ( * Nl2i_28^02 lam1n19 ) ( * Nl2i_28^03 lam1n20 ) ) 0 ) ( = ( + ( * 1 lam1n4 ) ( * 1 lam1n5 ) ( * 1 lam1n9 ) ( * Nl2i_347^01 lam1n18 ) ( * Nl2i_347^02 lam1n19 ) ( * Nl2i_347^03 lam1n20 ) ( - ( + 0 Nl2i_347^01 ) ) ) 0 ) ( = ( + ( * ( - 1 ) lam1n1 ) ( * ( - 1 ) lam1n6 ) ( * Nl2l_160^01 lam1n18 ) ( * Nl2l_160^02 lam1n19 ) ( * Nl2l_160^03 lam1n20 ) ) 0 ) ( = ( + ( * ( - 1 ) lam1n10 ) ( * Nl2rv_13^01 lam1n18 ) ( * Nl2rv_13^02 lam1n19 ) ( * Nl2rv_13^03 lam1n20 ) ( - ( + 0 Nl2rv_13^01 ) ) ) 0 ) ( = ( + ( * Nl2st_27^01 lam1n18 ) ( * Nl2st_27^02 lam1n19 ) ( * Nl2st_27^03 lam1n20 ) ) 0 ) ( = ( + ( * 1 lam1n11 ) ( - ( + 0 ( * Nl2a_176^01 1 ) ) ) ) 0 ) ( = ( + ( * ( - 1 ) lam1n11 ) ( * 1 lam1n12 ) ) 0 ) ( = ( + ( * 1 lam1n13 ) ( - ( + 0 ( * Nl2l_160^01 1 ) ) ) ) 0 ) ( = ( + ( * ( - 1 ) lam1n13 ) ( * 1 lam1n14 ) ) 0 ) ( = ( + ( * 1 lam1n17 ) ( - ( + 0 ( * Nl2st_27^01 1 ) ) ) ) 0 ) ( = ( - ( + 0 ( * Nl2i_28^01 1 ) ) ) 0 ) ( = ( + ( * ( - 1 ) lam1n7 ) ( * ( - 1 ) lam1n12 ) ( * 1 lam1n15 ) ) 0 ) ( = ( * ( - 1 ) lam1n15 ) 0 ) ( = ( + ( * ( - 1 ) lam1n8 ) ( * ( - 1 ) lam1n14 ) ( * 1 lam1n16 ) ) 0 ) ( = ( * ( - 1 ) lam1n16 ) 0 ) ) ))
(assert ( or ( and ( >= lam0n0 0 ) ( >= lam0n1 0 ) ( >= lam0n2 0 ) ( >= lam0n3 0 ) ( >= lam0n4 0 ) ( >= lam0n5 0 ) ( >= lam0n6 0 ) ( >= lam0n7 0 ) ( >= lam0n8 0 ) ( >= lam0n9 0 ) ( >= lam0n10 0 ) ( >= lam0n18 0 ) ( >= lam0n19 0 ) ( >= lam0n20 0 ) ( > ( + ( * 1 lam0n9 ) ( * 2 lam0n10 ) ( * ( - 1 ) lam0n17 ) ( * Nl2CT1 lam0n18 ) ( * Nl2CT2 lam0n19 ) ( * Nl2CT3 lam0n20 ) ( - 1 ) ) 0 ) ( = ( + ( * ( - 1 ) lam0n0 ) ( * ( - 1 ) lam0n1 ) ( * Nl2a_176^01 lam0n18 ) ( * Nl2a_176^02 lam0n19 ) ( * Nl2a_176^03 lam0n20 ) ) 0 ) ( = ( + ( * 1 lam0n2 ) ( * ( - 1 ) lam0n9 ) ( * Nl2i_214^01 lam0n18 ) ( * Nl2i_214^02 lam0n19 ) ( * Nl2i_214^03 lam0n20 ) ) 0 ) ( = ( + ( * 1 lam0n1 ) ( * 1 lam0n3 ) ( * 1 lam0n4 ) ( * Nl2i_28^01 lam0n18 ) ( * Nl2i_28^02 lam0n19 ) ( * Nl2i_28^03 lam0n20 ) ) 0 ) ( = ( + ( * 1 lam0n4 ) ( * 1 lam0n5 ) ( * 1 lam0n9 ) ( * Nl2i_347^01 lam0n18 ) ( * Nl2i_347^02 lam0n19 ) ( * Nl2i_347^03 lam0n20 ) ) 0 ) ( = ( + ( * ( - 1 ) lam0n1 ) ( * ( - 1 ) lam0n6 ) ( * Nl2l_160^01 lam0n18 ) ( * Nl2l_160^02 lam0n19 ) ( * Nl2l_160^03 lam0n20 ) ) 0 ) ( = ( + ( * ( - 1 ) lam0n10 ) ( * Nl2rv_13^01 lam0n18 ) ( * Nl2rv_13^02 lam0n19 ) ( * Nl2rv_13^03 lam0n20 ) ) 0 ) ( = ( + ( * Nl2st_27^01 lam0n18 ) ( * Nl2st_27^02 lam0n19 ) ( * Nl2st_27^03 lam0n20 ) ) 0 ) ( = ( * 1 lam0n11 ) 0 ) ( = ( + ( * ( - 1 ) lam0n11 ) ( * 1 lam0n12 ) ) 0 ) ( = ( * 1 lam0n13 ) 0 ) ( = ( + ( * ( - 1 ) lam0n13 ) ( * 1 lam0n14 ) ) 0 ) ( = ( * 1 lam0n17 ) 0 ) ( = ( + ( * ( - 1 ) lam0n7 ) ( * ( - 1 ) lam0n12 ) ( * 1 lam0n15 ) ) 0 ) ( = ( * ( - 1 ) lam0n15 ) 0 ) ( = ( + ( * ( - 1 ) lam0n8 ) ( * ( - 1 ) lam0n14 ) ( * 1 lam0n16 ) ) 0 ) ( = ( * ( - 1 ) lam0n16 ) 0 ) ) ( and ( >= lam2n0 0 ) ( >= lam2n1 0 ) ( >= lam2n2 0 ) ( >= lam2n3 0 ) ( >= lam2n4 0 ) ( >= lam2n5 0 ) ( >= lam2n6 0 ) ( >= lam2n7 0 ) ( >= lam2n8 0 ) ( >= lam2n9 0 ) ( >= lam2n10 0 ) ( >= lam2n18 0 ) ( >= lam2n19 0 ) ( >= lam2n20 0 ) ( > ( + ( * 1 lam2n9 ) ( * 2 lam2n10 ) ( * ( - 1 ) lam2n17 ) ( * Nl2CT1 lam2n18 ) ( * Nl2CT2 lam2n19 ) ( * Nl2CT3 lam2n20 ) ( - 1 ( + ( + ( + ( + Nl2CT2 ( * Nl2a_176^02 0 ) ) ( * Nl2i_28^02 0 ) ) ( * Nl2l_160^02 0 ) ) ( * Nl2st_27^02 0 ) ) ) ) 0 ) ( = ( + ( * ( - 1 ) lam2n0 ) ( * ( - 1 ) lam2n1 ) ( * Nl2a_176^01 lam2n18 ) ( * Nl2a_176^02 lam2n19 ) ( * Nl2a_176^03 lam2n20 ) ) 0 ) ( = ( + ( * 1 lam2n2 ) ( * ( - 1 ) lam2n9 ) ( * Nl2i_214^01 lam2n18 ) ( * Nl2i_214^02 lam2n19 ) ( * Nl2i_214^03 lam2n20 ) ( - ( + 0 Nl2i_214^02 ) ) ) 0 ) ( = ( + ( * 1 lam2n1 ) ( * 1 lam2n3 ) ( * 1 lam2n4 ) ( * Nl2i_28^01 lam2n18 ) ( * Nl2i_28^02 lam2n19 ) ( * Nl2i_28^03 lam2n20 ) ) 0 ) ( = ( + ( * 1 lam2n4 ) ( * 1 lam2n5 ) ( * 1 lam2n9 ) ( * Nl2i_347^01 lam2n18 ) ( * Nl2i_347^02 lam2n19 ) ( * Nl2i_347^03 lam2n20 ) ( - ( + 0 Nl2i_347^02 ) ) ) 0 ) ( = ( + ( * ( - 1 ) lam2n1 ) ( * ( - 1 ) lam2n6 ) ( * Nl2l_160^01 lam2n18 ) ( * Nl2l_160^02 lam2n19 ) ( * Nl2l_160^03 lam2n20 ) ) 0 ) ( = ( + ( * ( - 1 ) lam2n10 ) ( * Nl2rv_13^01 lam2n18 ) ( * Nl2rv_13^02 lam2n19 ) ( * Nl2rv_13^03 lam2n20 ) ( - ( + 0 Nl2rv_13^02 ) ) ) 0 ) ( = ( + ( * Nl2st_27^01 lam2n18 ) ( * Nl2st_27^02 lam2n19 ) ( * Nl2st_27^03 lam2n20 ) ) 0 ) ( = ( + ( * 1 lam2n11 ) ( - ( + 0 ( * Nl2a_176^02 1 ) ) ) ) 0 ) ( = ( + ( * ( - 1 ) lam2n11 ) ( * 1 lam2n12 ) ) 0 ) ( = ( + ( * 1 lam2n13 ) ( - ( + 0 ( * Nl2l_160^02 1 ) ) ) ) 0 ) ( = ( + ( * ( - 1 ) lam2n13 ) ( * 1 lam2n14 ) ) 0 ) ( = ( + ( * 1 lam2n17 ) ( - ( + 0 ( * Nl2st_27^02 1 ) ) ) ) 0 ) ( = ( - ( + 0 ( * Nl2i_28^02 1 ) ) ) 0 ) ( = ( + ( * ( - 1 ) lam2n7 ) ( * ( - 1 ) lam2n12 ) ( * 1 lam2n15 ) ) 0 ) ( = ( * ( - 1 ) lam2n15 ) 0 ) ( = ( + ( * ( - 1 ) lam2n8 ) ( * ( - 1 ) lam2n14 ) ( * 1 lam2n16 ) ) 0 ) ( = ( * ( - 1 ) lam2n16 ) 0 ) ) ))
(assert ( or ( and ( >= lam0n0 0 ) ( >= lam0n1 0 ) ( >= lam0n2 0 ) ( >= lam0n3 0 ) ( >= lam0n4 0 ) ( >= lam0n5 0 ) ( >= lam0n6 0 ) ( >= lam0n7 0 ) ( >= lam0n8 0 ) ( >= lam0n9 0 ) ( >= lam0n10 0 ) ( >= lam0n18 0 ) ( >= lam0n19 0 ) ( >= lam0n20 0 ) ( > ( + ( * 1 lam0n9 ) ( * 2 lam0n10 ) ( * ( - 1 ) lam0n17 ) ( * Nl2CT1 lam0n18 ) ( * Nl2CT2 lam0n19 ) ( * Nl2CT3 lam0n20 ) ( - 1 ) ) 0 ) ( = ( + ( * ( - 1 ) lam0n0 ) ( * ( - 1 ) lam0n1 ) ( * Nl2a_176^01 lam0n18 ) ( * Nl2a_176^02 lam0n19 ) ( * Nl2a_176^03 lam0n20 ) ) 0 ) ( = ( + ( * 1 lam0n2 ) ( * ( - 1 ) lam0n9 ) ( * Nl2i_214^01 lam0n18 ) ( * Nl2i_214^02 lam0n19 ) ( * Nl2i_214^03 lam0n20 ) ) 0 ) ( = ( + ( * 1 lam0n1 ) ( * 1 lam0n3 ) ( * 1 lam0n4 ) ( * Nl2i_28^01 lam0n18 ) ( * Nl2i_28^02 lam0n19 ) ( * Nl2i_28^03 lam0n20 ) ) 0 ) ( = ( + ( * 1 lam0n4 ) ( * 1 lam0n5 ) ( * 1 lam0n9 ) ( * Nl2i_347^01 lam0n18 ) ( * Nl2i_347^02 lam0n19 ) ( * Nl2i_347^03 lam0n20 ) ) 0 ) ( = ( + ( * ( - 1 ) lam0n1 ) ( * ( - 1 ) lam0n6 ) ( * Nl2l_160^01 lam0n18 ) ( * Nl2l_160^02 lam0n19 ) ( * Nl2l_160^03 lam0n20 ) ) 0 ) ( = ( + ( * ( - 1 ) lam0n10 ) ( * Nl2rv_13^01 lam0n18 ) ( * Nl2rv_13^02 lam0n19 ) ( * Nl2rv_13^03 lam0n20 ) ) 0 ) ( = ( + ( * Nl2st_27^01 lam0n18 ) ( * Nl2st_27^02 lam0n19 ) ( * Nl2st_27^03 lam0n20 ) ) 0 ) ( = ( * 1 lam0n11 ) 0 ) ( = ( + ( * ( - 1 ) lam0n11 ) ( * 1 lam0n12 ) ) 0 ) ( = ( * 1 lam0n13 ) 0 ) ( = ( + ( * ( - 1 ) lam0n13 ) ( * 1 lam0n14 ) ) 0 ) ( = ( * 1 lam0n17 ) 0 ) ( = ( + ( * ( - 1 ) lam0n7 ) ( * ( - 1 ) lam0n12 ) ( * 1 lam0n15 ) ) 0 ) ( = ( * ( - 1 ) lam0n15 ) 0 ) ( = ( + ( * ( - 1 ) lam0n8 ) ( * ( - 1 ) lam0n14 ) ( * 1 lam0n16 ) ) 0 ) ( = ( * ( - 1 ) lam0n16 ) 0 ) ) ( and ( >= lam3n0 0 ) ( >= lam3n1 0 ) ( >= lam3n2 0 ) ( >= lam3n3 0 ) ( >= lam3n4 0 ) ( >= lam3n5 0 ) ( >= lam3n6 0 ) ( >= lam3n7 0 ) ( >= lam3n8 0 ) ( >= lam3n9 0 ) ( >= lam3n10 0 ) ( >= lam3n18 0 ) ( >= lam3n19 0 ) ( >= lam3n20 0 ) ( > ( + ( * 1 lam3n9 ) ( * 2 lam3n10 ) ( * ( - 1 ) lam3n17 ) ( * Nl2CT1 lam3n18 ) ( * Nl2CT2 lam3n19 ) ( * Nl2CT3 lam3n20 ) ( - 1 ( + ( + ( + ( + Nl2CT3 ( * Nl2a_176^03 0 ) ) ( * Nl2i_28^03 0 ) ) ( * Nl2l_160^03 0 ) ) ( * Nl2st_27^03 0 ) ) ) ) 0 ) ( = ( + ( * ( - 1 ) lam3n0 ) ( * ( - 1 ) lam3n1 ) ( * Nl2a_176^01 lam3n18 ) ( * Nl2a_176^02 lam3n19 ) ( * Nl2a_176^03 lam3n20 ) ) 0 ) ( = ( + ( * 1 lam3n2 ) ( * ( - 1 ) lam3n9 ) ( * Nl2i_214^01 lam3n18 ) ( * Nl2i_214^02 lam3n19 ) ( * Nl2i_214^03 lam3n20 ) ( - ( + 0 Nl2i_214^03 ) ) ) 0 ) ( = ( + ( * 1 lam3n1 ) ( * 1 lam3n3 ) ( * 1 lam3n4 ) ( * Nl2i_28^01 lam3n18 ) ( * Nl2i_28^02 lam3n19 ) ( * Nl2i_28^03 lam3n20 ) ) 0 ) ( = ( + ( * 1 lam3n4 ) ( * 1 lam3n5 ) ( * 1 lam3n9 ) ( * Nl2i_347^01 lam3n18 ) ( * Nl2i_347^02 lam3n19 ) ( * Nl2i_347^03 lam3n20 ) ( - ( + 0 Nl2i_347^03 ) ) ) 0 ) ( = ( + ( * ( - 1 ) lam3n1 ) ( * ( - 1 ) lam3n6 ) ( * Nl2l_160^01 lam3n18 ) ( * Nl2l_160^02 lam3n19 ) ( * Nl2l_160^03 lam3n20 ) ) 0 ) ( = ( + ( * ( - 1 ) lam3n10 ) ( * Nl2rv_13^01 lam3n18 ) ( * Nl2rv_13^02 lam3n19 ) ( * Nl2rv_13^03 lam3n20 ) ( - ( + 0 Nl2rv_13^03 ) ) ) 0 ) ( = ( + ( * Nl2st_27^01 lam3n18 ) ( * Nl2st_27^02 lam3n19 ) ( * Nl2st_27^03 lam3n20 ) ) 0 ) ( = ( + ( * 1 lam3n11 ) ( - ( + 0 ( * Nl2a_176^03 1 ) ) ) ) 0 ) ( = ( + ( * ( - 1 ) lam3n11 ) ( * 1 lam3n12 ) ) 0 ) ( = ( + ( * 1 lam3n13 ) ( - ( + 0 ( * Nl2l_160^03 1 ) ) ) ) 0 ) ( = ( + ( * ( - 1 ) lam3n13 ) ( * 1 lam3n14 ) ) 0 ) ( = ( + ( * 1 lam3n17 ) ( - ( + 0 ( * Nl2st_27^03 1 ) ) ) ) 0 ) ( = ( - ( + 0 ( * Nl2i_28^03 1 ) ) ) 0 ) ( = ( + ( * ( - 1 ) lam3n7 ) ( * ( - 1 ) lam3n12 ) ( * 1 lam3n15 ) ) 0 ) ( = ( * ( - 1 ) lam3n15 ) 0 ) ( = ( + ( * ( - 1 ) lam3n8 ) ( * ( - 1 ) lam3n14 ) ( * 1 lam3n16 ) ) 0 ) ( = ( * ( - 1 ) lam3n16 ) 0 ) ) ))
(assert ( or ( and ( not ( <= ( + 1 a_176^0 l_160^0 ( * ( - 1 ) undef79 ) ) 0 ) ) ( <= i_214^0 0 ) ( <= ( + i_214^0 ( * ( - 1 ) i_347^0 ) ) 0 ) ( <= ( * ( - 1 ) i_30^0 ) 0 ) ( <= ( + ( * ( - 1 ) i_30^0 ) l_29^0 ) 0 ) ( <= ( + rv_13^0 ( * ( - 1 ) undef32 ) ) 0 ) ( <= ( + rv_13^0 ( * ( - 1 ) undef77 ) ) 0 ) ( <= ( + rv_13^0 ( * ( - 1 ) undef78 ) ) 0 ) ( <= ( * ( - 1 ) undef78 ) 0 ) ( <= ( + 2 ( * ( - 1 ) rv_13^0 ) ) 0 ) ( = ( + ( * ( - 1 ) a_176^0 ) undef78 ) 0 ) ( = ( + h_32^0 ( * ( - 1 ) undef81 ) ) 0 ) ( = ( * ( - 1 ) l_160^0 ) 0 ) ( = ( + undef25 ( * ( - 1 ) undef70 ) ) 0 ) ( = ( + undef25 ( * ( - 1 ) undef80 ) ) 0 ) ( = ( + ( * ( - 1 ) undef27 ) undef78 ) 0 ) ( = ( + ( * ( - 1 ) undef28 ) undef35 ) 0 ) ( = ( + undef80 ( * ( - 1 ) undef81 ) ) 0 ) ( = ( + 1 ( * ( - 1 ) undef65 ) ) 0 ) ( <= ( + ( + ( + Nl2CT1 ( * Nl2i_28^01 0 ) ) ( * Nl2st_27^01 0 ) ) ( * ( + 0 Nl2a_176^01 ) a_176^0 ) ( * ( + 0 Nl2i_214^01 ) i_214^0 ) ( * ( + 0 Nl2i_347^01 ) i_347^0 ) ( * ( + 0 Nl2l_160^01 ) l_160^0 ) ( * ( + 0 Nl2rv_13^01 ) rv_13^0 ) ( * ( + 0 ( * Nl2st_27^01 1 ) ) undef65 ) ( * ( + 0 ( * Nl2i_28^01 1 ) ) undef79 ) ) 0 ) ( <= ( + ( + ( + Nl2CT2 ( * Nl2i_28^02 0 ) ) ( * Nl2st_27^02 0 ) ) ( * ( + 0 Nl2a_176^02 ) a_176^0 ) ( * ( + 0 Nl2i_214^02 ) i_214^0 ) ( * ( + 0 Nl2i_347^02 ) i_347^0 ) ( * ( + 0 Nl2l_160^02 ) l_160^0 ) ( * ( + 0 Nl2rv_13^02 ) rv_13^0 ) ( * ( + 0 ( * Nl2st_27^02 1 ) ) undef65 ) ( * ( + 0 ( * Nl2i_28^02 1 ) ) undef79 ) ) 0 ) ( <= ( + ( + ( + Nl2CT3 ( * Nl2i_28^03 0 ) ) ( * Nl2st_27^03 0 ) ) ( * ( + 0 Nl2a_176^03 ) a_176^0 ) ( * ( + 0 Nl2i_214^03 ) i_214^0 ) ( * ( + 0 Nl2i_347^03 ) i_347^0 ) ( * ( + 0 Nl2l_160^03 ) l_160^0 ) ( * ( + 0 Nl2rv_13^03 ) rv_13^0 ) ( * ( + 0 ( * Nl2st_27^03 1 ) ) undef65 ) ( * ( + 0 ( * Nl2i_28^03 1 ) ) undef79 ) ) 0 ) ( <= ( + 1 ( * ( - 1 ) i_214^0 ) i_347^0 ) 0 ) ( <= i_214^0 0 ) ) ( and ( not ( <= ( + 1 a_176^0 l_160^0 ( * ( - 1 ) undef79 ) ) 0 ) ) ( <= i_214^0 0 ) ( <= ( * ( - 1 ) i_30^0 ) 0 ) ( <= ( + ( * ( - 1 ) i_30^0 ) l_29^0 ) 0 ) ( not ( <= ( + 1 ( * ( - 1 ) i_347^0 ) ( * ( - 1 ) undef79 ) ) 0 ) ) ( <= ( + rv_13^0 ( * ( - 1 ) undef32 ) ) 0 ) ( <= ( + rv_13^0 ( * ( - 1 ) undef77 ) ) 0 ) ( <= ( + rv_13^0 ( * ( - 1 ) undef78 ) ) 0 ) ( <= ( * ( - 1 ) undef78 ) 0 ) ( not ( <= ( + i_214^0 ( * ( - 1 ) i_347^0 ) ) 0 ) ) ( <= ( + 2 ( * ( - 1 ) rv_13^0 ) ) 0 ) ( = ( + ( * ( - 1 ) a_176^0 ) undef78 ) 0 ) ( = ( + h_32^0 ( * ( - 1 ) undef81 ) ) 0 ) ( = ( * ( - 1 ) l_160^0 ) 0 ) ( = ( + undef25 ( * ( - 1 ) undef70 ) ) 0 ) ( = ( + undef25 ( * ( - 1 ) undef80 ) ) 0 ) ( = ( + ( * ( - 1 ) undef27 ) undef78 ) 0 ) ( = ( + ( * ( - 1 ) undef28 ) undef35 ) 0 ) ( = ( + undef80 ( * ( - 1 ) undef81 ) ) 0 ) ( = ( + 1 ( * ( - 1 ) undef65 ) ) 0 ) ( <= ( + ( + ( + Nl2CT1 ( * Nl2i_28^01 0 ) ) ( * Nl2st_27^01 0 ) ) ( * ( + 0 Nl2a_176^01 ) a_176^0 ) ( * ( + 0 Nl2i_214^01 ) i_214^0 ) ( * ( + 0 Nl2i_347^01 ) i_347^0 ) ( * ( + 0 Nl2l_160^01 ) l_160^0 ) ( * ( + 0 Nl2rv_13^01 ) rv_13^0 ) ( * ( + 0 ( * Nl2st_27^01 1 ) ) undef65 ) ( * ( + 0 ( * Nl2i_28^01 1 ) ) undef79 ) ) 0 ) ( <= ( + ( + ( + Nl2CT2 ( * Nl2i_28^02 0 ) ) ( * Nl2st_27^02 0 ) ) ( * ( + 0 Nl2a_176^02 ) a_176^0 ) ( * ( + 0 Nl2i_214^02 ) i_214^0 ) ( * ( + 0 Nl2i_347^02 ) i_347^0 ) ( * ( + 0 Nl2l_160^02 ) l_160^0 ) ( * ( + 0 Nl2rv_13^02 ) rv_13^0 ) ( * ( + 0 ( * Nl2st_27^02 1 ) ) undef65 ) ( * ( + 0 ( * Nl2i_28^02 1 ) ) undef79 ) ) 0 ) ( <= ( + ( + ( + Nl2CT3 ( * Nl2i_28^03 0 ) ) ( * Nl2st_27^03 0 ) ) ( * ( + 0 Nl2a_176^03 ) a_176^0 ) ( * ( + 0 Nl2i_214^03 ) i_214^0 ) ( * ( + 0 Nl2i_347^03 ) i_347^0 ) ( * ( + 0 Nl2l_160^03 ) l_160^0 ) ( * ( + 0 Nl2rv_13^03 ) rv_13^0 ) ( * ( + 0 ( * Nl2st_27^03 1 ) ) undef65 ) ( * ( + 0 ( * Nl2i_28^03 1 ) ) undef79 ) ) 0 ) ( <= ( + 1 ( * ( - 1 ) i_214^0 ) i_347^0 ) 0 ) ( <= i_214^0 0 ) ) ( and ( <= ( * ( - 1 ) i_30^0 ) 0 ) ( <= ( + ( * ( - 1 ) i_30^0 ) l_29^0 ) 0 ) ( <= ( + rv_13^0 ( * ( - 1 ) undef32 ) ) 0 ) ( <= ( + rv_13^0 ( * ( - 1 ) undef77 ) ) 0 ) ( <= ( + rv_13^0 ( * ( - 1 ) undef78 ) ) 0 ) ( <= ( * ( - 1 ) undef78 ) 0 ) ( not ( <= i_214^0 0 ) ) ( not ( <= ( + i_214^0 ( * ( - 1 ) i_347^0 ) ) 0 ) ) ( <= ( + 2 ( * ( - 1 ) rv_13^0 ) ) 0 ) ( = ( + ( * ( - 1 ) a_176^0 ) undef78 ) 0 ) ( = ( + h_32^0 ( * ( - 1 ) undef81 ) ) 0 ) ( = ( * ( - 1 ) l_160^0 ) 0 ) ( = ( + undef25 ( * ( - 1 ) undef70 ) ) 0 ) ( = ( + undef25 ( * ( - 1 ) undef80 ) ) 0 ) ( = ( + ( * ( - 1 ) undef27 ) undef78 ) 0 ) ( = ( + ( * ( - 1 ) undef28 ) undef35 ) 0 ) ( = ( + undef80 ( * ( - 1 ) undef81 ) ) 0 ) ( = ( + 1 ( * ( - 1 ) undef65 ) ) 0 ) ( <= ( + ( + ( + Nl2CT1 ( * Nl2i_28^01 0 ) ) ( * Nl2st_27^01 0 ) ) ( * ( + 0 Nl2a_176^01 ) a_176^0 ) ( * ( + 0 Nl2i_214^01 ) i_214^0 ) ( * ( + 0 Nl2i_347^01 ) i_347^0 ) ( * ( + 0 Nl2l_160^01 ) l_160^0 ) ( * ( + 0 Nl2rv_13^01 ) rv_13^0 ) ( * ( + 0 ( * Nl2st_27^01 1 ) ) undef65 ) ( * ( + 0 ( * Nl2i_28^01 1 ) ) undef79 ) ) 0 ) ( <= ( + ( + ( + Nl2CT2 ( * Nl2i_28^02 0 ) ) ( * Nl2st_27^02 0 ) ) ( * ( + 0 Nl2a_176^02 ) a_176^0 ) ( * ( + 0 Nl2i_214^02 ) i_214^0 ) ( * ( + 0 Nl2i_347^02 ) i_347^0 ) ( * ( + 0 Nl2l_160^02 ) l_160^0 ) ( * ( + 0 Nl2rv_13^02 ) rv_13^0 ) ( * ( + 0 ( * Nl2st_27^02 1 ) ) undef65 ) ( * ( + 0 ( * Nl2i_28^02 1 ) ) undef79 ) ) 0 ) ( <= ( + ( + ( + Nl2CT3 ( * Nl2i_28^03 0 ) ) ( * Nl2st_27^03 0 ) ) ( * ( + 0 Nl2a_176^03 ) a_176^0 ) ( * ( + 0 Nl2i_214^03 ) i_214^0 ) ( * ( + 0 Nl2i_347^03 ) i_347^0 ) ( * ( + 0 Nl2l_160^03 ) l_160^0 ) ( * ( + 0 Nl2rv_13^03 ) rv_13^0 ) ( * ( + 0 ( * Nl2st_27^03 1 ) ) undef65 ) ( * ( + 0 ( * Nl2i_28^03 1 ) ) undef79 ) ) 0 ) ( <= ( + 1 ( * ( - 1 ) i_214^0 ) i_347^0 ) 0 ) ( <= i_214^0 0 ) ) ))
(assert ( or ( and ( and ( >= lam16n0 0 ) ( >= lam16n1 0 ) ( >= lam16n2 0 ) ( >= lam16n3 0 ) ( >= lam16n4 0 ) ( >= lam16n5 0 ) ( >= lam16n6 0 ) ( >= lam16n7 0 ) ( >= lam16n8 0 ) ( >= lam16n9 0 ) ( >= lam16n10 0 ) ( >= lam16n18 0 ) ( >= lam16n19 0 ) ( >= lam16n20 0 ) ( > ( + ( * 1 lam16n9 ) ( * 2 lam16n10 ) ( * ( - 1 ) lam16n17 ) ( * Nl2CT1 lam16n18 ) ( * Nl2CT2 lam16n19 ) ( * Nl2CT3 lam16n20 ) ( - 1 ( - ( + ( + ( + ( + RFN1_CT ( * RFN1_a_176^0 0 ) ) ( * RFN1_i_28^0 0 ) ) ( * RFN1_l_160^0 0 ) ) ( * RFN1_st_27^0 0 ) ) RFN1_CT ) ) ) 0 ) ( = ( + ( * ( - 1 ) lam16n0 ) ( * ( - 1 ) lam16n1 ) ( * Nl2a_176^01 lam16n18 ) ( * Nl2a_176^02 lam16n19 ) ( * Nl2a_176^03 lam16n20 ) ( - ( - RFN1_a_176^0 ) ) ) 0 ) ( = ( + ( * 1 lam16n2 ) ( * ( - 1 ) lam16n9 ) ( * Nl2i_214^01 lam16n18 ) ( * Nl2i_214^02 lam16n19 ) ( * Nl2i_214^03 lam16n20 ) ( - ( - ( + 0 RFN1_i_214^0 ) RFN1_i_214^0 ) ) ) 0 ) ( = ( + ( * 1 lam16n1 ) ( * 1 lam16n3 ) ( * 1 lam16n4 ) ( * Nl2i_28^01 lam16n18 ) ( * Nl2i_28^02 lam16n19 ) ( * Nl2i_28^03 lam16n20 ) ( - ( - RFN1_i_28^0 ) ) ) 0 ) ( = ( + ( * 1 lam16n4 ) ( * 1 lam16n5 ) ( * 1 lam16n9 ) ( * Nl2i_347^01 lam16n18 ) ( * Nl2i_347^02 lam16n19 ) ( * Nl2i_347^03 lam16n20 ) ( - ( - ( + 0 RFN1_i_347^0 ) RFN1_i_347^0 ) ) ) 0 ) ( = ( + ( * ( - 1 ) lam16n1 ) ( * ( - 1 ) lam16n6 ) ( * Nl2l_160^01 lam16n18 ) ( * Nl2l_160^02 lam16n19 ) ( * Nl2l_160^03 lam16n20 ) ( - ( - RFN1_l_160^0 ) ) ) 0 ) ( = ( + ( * ( - 1 ) lam16n10 ) ( * Nl2rv_13^01 lam16n18 ) ( * Nl2rv_13^02 lam16n19 ) ( * Nl2rv_13^03 lam16n20 ) ( - ( - ( + 0 RFN1_rv_13^0 ) RFN1_rv_13^0 ) ) ) 0 ) ( = ( + ( * Nl2st_27^01 lam16n18 ) ( * Nl2st_27^02 lam16n19 ) ( * Nl2st_27^03 lam16n20 ) ( - ( - RFN1_st_27^0 ) ) ) 0 ) ( = ( + ( * 1 lam16n11 ) ( - ( + 0 ( * RFN1_a_176^0 1 ) ) ) ) 0 ) ( = ( + ( * ( - 1 ) lam16n11 ) ( * 1 lam16n12 ) ) 0 ) ( = ( + ( * 1 lam16n13 ) ( - ( + 0 ( * RFN1_l_160^0 1 ) ) ) ) 0 ) ( = ( + ( * ( - 1 ) lam16n13 ) ( * 1 lam16n14 ) ) 0 ) ( = ( + ( * 1 lam16n17 ) ( - ( + 0 ( * RFN1_st_27^0 1 ) ) ) ) 0 ) ( = ( - ( + 0 ( * RFN1_i_28^0 1 ) ) ) 0 ) ( = ( + ( * ( - 1 ) lam16n7 ) ( * ( - 1 ) lam16n12 ) ( * 1 lam16n15 ) ) 0 ) ( = ( * ( - 1 ) lam16n15 ) 0 ) ( = ( + ( * ( - 1 ) lam16n8 ) ( * ( - 1 ) lam16n14 ) ( * 1 lam16n16 ) ) 0 ) ( = ( * ( - 1 ) lam16n16 ) 0 ) ) ( and ( and ( >= lam14n0 0 ) ( >= lam14n1 0 ) ( >= lam14n2 0 ) ( >= lam14n3 0 ) ( >= lam14n4 0 ) ( >= lam14n5 0 ) ( >= lam14n6 0 ) ( >= lam14n7 0 ) ( >= lam14n8 0 ) ( >= lam14n9 0 ) ( >= lam14n10 0 ) ( >= lam14n18 0 ) ( >= lam14n19 0 ) ( >= lam14n20 0 ) ( > ( + ( * 1 lam14n9 ) ( * 2 lam14n10 ) ( * ( - 1 ) lam14n17 ) ( * Nl2CT1 lam14n18 ) ( * Nl2CT2 lam14n19 ) ( * Nl2CT3 lam14n20 ) ( - 1 ( - RFN1_CT ) ) ) 0 ) ( = ( + ( * ( - 1 ) lam14n0 ) ( * ( - 1 ) lam14n1 ) ( * Nl2a_176^01 lam14n18 ) ( * Nl2a_176^02 lam14n19 ) ( * Nl2a_176^03 lam14n20 ) ( - ( - RFN1_a_176^0 ) ) ) 0 ) ( = ( + ( * 1 lam14n2 ) ( * ( - 1 ) lam14n9 ) ( * Nl2i_214^01 lam14n18 ) ( * Nl2i_214^02 lam14n19 ) ( * Nl2i_214^03 lam14n20 ) ( - ( - RFN1_i_214^0 ) ) ) 0 ) ( = ( + ( * 1 lam14n1 ) ( * 1 lam14n3 ) ( * 1 lam14n4 ) ( * Nl2i_28^01 lam14n18 ) ( * Nl2i_28^02 lam14n19 ) ( * Nl2i_28^03 lam14n20 ) ( - ( - RFN1_i_28^0 ) ) ) 0 ) ( = ( + ( * 1 lam14n4 ) ( * 1 lam14n5 ) ( * 1 lam14n9 ) ( * Nl2i_347^01 lam14n18 ) ( * Nl2i_347^02 lam14n19 ) ( * Nl2i_347^03 lam14n20 ) ( - ( - RFN1_i_347^0 ) ) ) 0 ) ( = ( + ( * ( - 1 ) lam14n1 ) ( * ( - 1 ) lam14n6 ) ( * Nl2l_160^01 lam14n18 ) ( * Nl2l_160^02 lam14n19 ) ( * Nl2l_160^03 lam14n20 ) ( - ( - RFN1_l_160^0 ) ) ) 0 ) ( = ( + ( * ( - 1 ) lam14n10 ) ( * Nl2rv_13^01 lam14n18 ) ( * Nl2rv_13^02 lam14n19 ) ( * Nl2rv_13^03 lam14n20 ) ( - ( - RFN1_rv_13^0 ) ) ) 0 ) ( = ( + ( * Nl2st_27^01 lam14n18 ) ( * Nl2st_27^02 lam14n19 ) ( * Nl2st_27^03 lam14n20 ) ( - ( - RFN1_st_27^0 ) ) ) 0 ) ( = ( * 1 lam14n11 ) 0 ) ( = ( + ( * ( - 1 ) lam14n11 ) ( * 1 lam14n12 ) ) 0 ) ( = ( * 1 lam14n13 ) 0 ) ( = ( + ( * ( - 1 ) lam14n13 ) ( * 1 lam14n14 ) ) 0 ) ( = ( * 1 lam14n17 ) 0 ) ( = ( + ( * ( - 1 ) lam14n7 ) ( * ( - 1 ) lam14n12 ) ( * 1 lam14n15 ) ) 0 ) ( = ( * ( - 1 ) lam14n15 ) 0 ) ( = ( + ( * ( - 1 ) lam14n8 ) ( * ( - 1 ) lam14n14 ) ( * 1 lam14n16 ) ) 0 ) ( = ( * ( - 1 ) lam14n16 ) 0 ) ) ( and ( >= lam15n0 0 ) ( >= lam15n1 0 ) ( >= lam15n2 0 ) ( >= lam15n3 0 ) ( >= lam15n4 0 ) ( >= lam15n5 0 ) ( >= lam15n6 0 ) ( >= lam15n7 0 ) ( >= lam15n8 0 ) ( >= lam15n9 0 ) ( >= lam15n10 0 ) ( >= lam15n18 0 ) ( >= lam15n19 0 ) ( >= lam15n20 0 ) ( > ( + ( * 1 lam15n9 ) ( * 2 lam15n10 ) ( * ( - 1 ) lam15n17 ) ( * Nl2CT1 lam15n18 ) ( * Nl2CT2 lam15n19 ) ( * Nl2CT3 lam15n20 ) ( - 1 ( + ( - ( + ( + ( + ( + RFN1_CT ( * RFN1_a_176^0 0 ) ) ( * RFN1_i_28^0 0 ) ) ( * RFN1_l_160^0 0 ) ) ( * RFN1_st_27^0 0 ) ) RFN1_CT ) 1 ) ) ) 0 ) ( = ( + ( * ( - 1 ) lam15n0 ) ( * ( - 1 ) lam15n1 ) ( * Nl2a_176^01 lam15n18 ) ( * Nl2a_176^02 lam15n19 ) ( * Nl2a_176^03 lam15n20 ) ( - ( - RFN1_a_176^0 ) ) ) 0 ) ( = ( + ( * 1 lam15n2 ) ( * ( - 1 ) lam15n9 ) ( * Nl2i_214^01 lam15n18 ) ( * Nl2i_214^02 lam15n19 ) ( * Nl2i_214^03 lam15n20 ) ( - ( - ( + 0 RFN1_i_214^0 ) RFN1_i_214^0 ) ) ) 0 ) ( = ( + ( * 1 lam15n1 ) ( * 1 lam15n3 ) ( * 1 lam15n4 ) ( * Nl2i_28^01 lam15n18 ) ( * Nl2i_28^02 lam15n19 ) ( * Nl2i_28^03 lam15n20 ) ( - ( - RFN1_i_28^0 ) ) ) 0 ) ( = ( + ( * 1 lam15n4 ) ( * 1 lam15n5 ) ( * 1 lam15n9 ) ( * Nl2i_347^01 lam15n18 ) ( * Nl2i_347^02 lam15n19 ) ( * Nl2i_347^03 lam15n20 ) ( - ( - ( + 0 RFN1_i_347^0 ) RFN1_i_347^0 ) ) ) 0 ) ( = ( + ( * ( - 1 ) lam15n1 ) ( * ( - 1 ) lam15n6 ) ( * Nl2l_160^01 lam15n18 ) ( * Nl2l_160^02 lam15n19 ) ( * Nl2l_160^03 lam15n20 ) ( - ( - RFN1_l_160^0 ) ) ) 0 ) ( = ( + ( * ( - 1 ) lam15n10 ) ( * Nl2rv_13^01 lam15n18 ) ( * Nl2rv_13^02 lam15n19 ) ( * Nl2rv_13^03 lam15n20 ) ( - ( - ( + 0 RFN1_rv_13^0 ) RFN1_rv_13^0 ) ) ) 0 ) ( = ( + ( * Nl2st_27^01 lam15n18 ) ( * Nl2st_27^02 lam15n19 ) ( * Nl2st_27^03 lam15n20 ) ( - ( - RFN1_st_27^0 ) ) ) 0 ) ( = ( + ( * 1 lam15n11 ) ( - ( + 0 ( * RFN1_a_176^0 1 ) ) ) ) 0 ) ( = ( + ( * ( - 1 ) lam15n11 ) ( * 1 lam15n12 ) ) 0 ) ( = ( + ( * 1 lam15n13 ) ( - ( + 0 ( * RFN1_l_160^0 1 ) ) ) ) 0 ) ( = ( + ( * ( - 1 ) lam15n13 ) ( * 1 lam15n14 ) ) 0 ) ( = ( + ( * 1 lam15n17 ) ( - ( + 0 ( * RFN1_st_27^0 1 ) ) ) ) 0 ) ( = ( - ( + 0 ( * RFN1_i_28^0 1 ) ) ) 0 ) ( = ( + ( * ( - 1 ) lam15n7 ) ( * ( - 1 ) lam15n12 ) ( * 1 lam15n15 ) ) 0 ) ( = ( * ( - 1 ) lam15n15 ) 0 ) ( = ( + ( * ( - 1 ) lam15n8 ) ( * ( - 1 ) lam15n14 ) ( * 1 lam15n16 ) ) 0 ) ( = ( * ( - 1 ) lam15n16 ) 0 ) ) ) ) ( and ( >= lam13n0 0 ) ( >= lam13n1 0 ) ( >= lam13n2 0 ) ( >= lam13n3 0 ) ( >= lam13n4 0 ) ( >= lam13n5 0 ) ( >= lam13n6 0 ) ( >= lam13n7 0 ) ( >= lam13n8 0 ) ( >= lam13n9 0 ) ( >= lam13n10 0 ) ( >= lam13n18 0 ) ( >= lam13n19 0 ) ( >= lam13n20 0 ) ( > ( + ( * 1 lam13n9 ) ( * 2 lam13n10 ) ( * ( - 1 ) lam13n17 ) ( * Nl2CT1 lam13n18 ) ( * Nl2CT2 lam13n19 ) ( * Nl2CT3 lam13n20 ) ( - 1 ) ) 0 ) ( = ( + ( * ( - 1 ) lam13n0 ) ( * ( - 1 ) lam13n1 ) ( * Nl2a_176^01 lam13n18 ) ( * Nl2a_176^02 lam13n19 ) ( * Nl2a_176^03 lam13n20 ) ) 0 ) ( = ( + ( * 1 lam13n2 ) ( * ( - 1 ) lam13n9 ) ( * Nl2i_214^01 lam13n18 ) ( * Nl2i_214^02 lam13n19 ) ( * Nl2i_214^03 lam13n20 ) ) 0 ) ( = ( + ( * 1 lam13n1 ) ( * 1 lam13n3 ) ( * 1 lam13n4 ) ( * Nl2i_28^01 lam13n18 ) ( * Nl2i_28^02 lam13n19 ) ( * Nl2i_28^03 lam13n20 ) ) 0 ) ( = ( + ( * 1 lam13n4 ) ( * 1 lam13n5 ) ( * 1 lam13n9 ) ( * Nl2i_347^01 lam13n18 ) ( * Nl2i_347^02 lam13n19 ) ( * Nl2i_347^03 lam13n20 ) ) 0 ) ( = ( + ( * ( - 1 ) lam13n1 ) ( * ( - 1 ) lam13n6 ) ( * Nl2l_160^01 lam13n18 ) ( * Nl2l_160^02 lam13n19 ) ( * Nl2l_160^03 lam13n20 ) ) 0 ) ( = ( + ( * ( - 1 ) lam13n10 ) ( * Nl2rv_13^01 lam13n18 ) ( * Nl2rv_13^02 lam13n19 ) ( * Nl2rv_13^03 lam13n20 ) ) 0 ) ( = ( + ( * Nl2st_27^01 lam13n18 ) ( * Nl2st_27^02 lam13n19 ) ( * Nl2st_27^03 lam13n20 ) ) 0 ) ( = ( * 1 lam13n11 ) 0 ) ( = ( + ( * ( - 1 ) lam13n11 ) ( * 1 lam13n12 ) ) 0 ) ( = ( * 1 lam13n13 ) 0 ) ( = ( + ( * ( - 1 ) lam13n13 ) ( * 1 lam13n14 ) ) 0 ) ( = ( * 1 lam13n17 ) 0 ) ( = ( + ( * ( - 1 ) lam13n7 ) ( * ( - 1 ) lam13n12 ) ( * 1 lam13n15 ) ) 0 ) ( = ( * ( - 1 ) lam13n15 ) 0 ) ( = ( + ( * ( - 1 ) lam13n8 ) ( * ( - 1 ) lam13n14 ) ( * 1 lam13n16 ) ) 0 ) ( = ( * ( - 1 ) lam13n16 ) 0 ) ) ))
(check-sat)
(exit)
